datasets/2-dimensional/CL_04_25_10.vbp
2
1000 1000 
25
112 151 30
98 139 72
134 70 4
55 176 88
194 143 54
183 151 64
157 136 90
149 80 26
91 167 94
118 180 28
112 102 72
158 116 49
87 157 54
85 57 19
83 149 28
66 68 61
66 95 84
167 116 23
53 62 67
56 68 53
110 166 54
198 141 16
54 124 9
61 151 54
53 153 77
