datasets/2-dimensional/CL_04_25_10.txt
1000 1000 
0 30 112 151 
1 72 98 139 
2 4 134 70 
3 88 55 176 
4 54 194 143 
5 64 183 151 
6 90 157 136 
7 26 149 80 
8 94 91 167 
9 28 118 180 
10 72 112 102 
11 49 158 116 
12 54 87 157 
13 19 85 57 
14 28 83 149 
15 61 66 68 
16 84 66 95 
17 23 167 116 
18 67 53 62 
19 53 56 68 
20 54 110 166 
21 16 198 141 
22 9 54 124 
23 54 61 151 
24 77 53 153 
